p cnf 15 28
-15 10 -7 0
15 9 -3 0
15 -6 -4 0
-15 5 4 0
-15 5 -2 0
-14 13 6 0
-14 -12 -2 0
-14 -7 4 0
13 -12 3 0
-13 10 -2 0
-13 -7 1 0
13 -5 -4 0
13 4 1 0
12 11 10 0
-12 -11 -10 0
-12 10 -5 0
-12 -9 -3 0
-11 -10 2 0
-11 9 2 0
11 6 -3 0
-11 -2 1 0
-10 9 -7 0
10 -7 -1 0
-10 4 -3 0
-8 6 2 0
7 6 2 0
-6 5 3 0
-5 3 1 0
